solution status: optimal solution found
objective value:                     164128.148142586
d11(0,0)                                            1 	(obj:0)
d11(1,1)                                            1 	(obj:0)
d11(2,3)                                            1 	(obj:0)
d11(2,4)                                            1 	(obj:0)
d11(2,5)                                            1 	(obj:0)
d11(3,7)                                            1 	(obj:0)
d11(3,9)                                            1 	(obj:0)
d11(3,11)                                           1 	(obj:0)
d11(3,12)                                           1 	(obj:0)
d11(3,13)                                           1 	(obj:0)
d11(3,14)                                           1 	(obj:0)
d11(4,17)                                           1 	(obj:0)
d11(4,25)                                           1 	(obj:0)
d11(5,31)                                           1 	(obj:0)
d11(5,33)                                           1 	(obj:0)
d11(5,35)                                           1 	(obj:0)
d11(5,37)                                           1 	(obj:0)
d11(5,39)                                           1 	(obj:0)
d11(5,41)                                           1 	(obj:0)
d11(5,43)                                           1 	(obj:0)
d11(5,45)                                           1 	(obj:0)
d11(5,47)                                           1 	(obj:0)
d11(5,49)                                           1 	(obj:0)
d11(5,51)                                           1 	(obj:0)
d11(5,53)                                           1 	(obj:0)
d11(5,55)                                           1 	(obj:0)
d11(5,57)                                           1 	(obj:0)
d11(5,59)                                           1 	(obj:0)
d11(5,61)                                           1 	(obj:0)
d12(1,2)                                            1 	(obj:0)
d12(4,16)                                           1 	(obj:0)
d12(4,18)                                           1 	(obj:0)
d12(4,20)                                           1 	(obj:0)
d12(4,22)                                           1 	(obj:0)
d12(4,24)                                           1 	(obj:0)
d12(4,26)                                           1 	(obj:0)
d12(4,28)                                           1 	(obj:0)
d12(4,30)                                           1 	(obj:0)
d12(5,32)                                           1 	(obj:0)
d12(5,34)                                           1 	(obj:0)
d12(5,36)                                           1 	(obj:0)
d12(5,38)                                           1 	(obj:0)
d12(5,40)                                           1 	(obj:0)
d12(5,42)                                           1 	(obj:0)
d12(5,44)                                           1 	(obj:0)
d12(5,46)                                           1 	(obj:0)
d12(5,48)                                           1 	(obj:0)
d12(5,50)                                           1 	(obj:0)
d12(5,52)                                           1 	(obj:0)
d12(5,54)                                           1 	(obj:0)
d12(5,56)                                           1 	(obj:0)
d12(5,58)                                           1 	(obj:0)
d12(5,60)                                           1 	(obj:0)
d12(5,62)                                           1 	(obj:0)
d21(3,7)                                            1 	(obj:0)
d21(4,15)                                           1 	(obj:0)
d21(4,16)                                           1 	(obj:0)
d21(4,17)                                           1 	(obj:0)
d21(4,19)                                           1 	(obj:0)
d21(4,23)                                           1 	(obj:0)
d21(5,31)                                           1 	(obj:0)
d21(5,32)                                           1 	(obj:0)
d21(5,33)                                           1 	(obj:0)
d21(5,34)                                           1 	(obj:0)
d21(5,35)                                           1 	(obj:0)
d21(5,36)                                           1 	(obj:0)
d21(5,37)                                           1 	(obj:0)
d21(5,39)                                           1 	(obj:0)
d21(5,40)                                           1 	(obj:0)
d21(5,41)                                           1 	(obj:0)
d21(5,47)                                           1 	(obj:0)
d21(5,48)                                           1 	(obj:0)
d21(5,49)                                           1 	(obj:0)
d21(5,51)                                           1 	(obj:0)
d21(5,55)                                           1 	(obj:0)
y2(5,40)                             1385.48851145535 	(obj:0)
y2(5,42)                             1385.48851145535 	(obj:0)
y2(5,44)                             1385.48851145535 	(obj:0)
y2(5,46)                             1385.48851145535 	(obj:0)
y2(5,48)                             1385.48851145535 	(obj:0)
y2(5,50)                             1385.48851145535 	(obj:0)
y2(5,52)                             1385.48851145535 	(obj:0)
y2(5,54)                             1385.48851145535 	(obj:0)
y2(5,56)                             1385.48851145535 	(obj:0)
y2(5,58)                             1385.48851145535 	(obj:0)
y2(5,60)                             1385.48851145535 	(obj:0)
y2(5,62)                             1385.48851145535 	(obj:0)
STE(1,1)                             14489.9999999931 	(obj:0)
STE(0,0)                                        15750 	(obj:0)
STE(1,2)                             15806.2140858704 	(obj:0)
STE(2,3)                             11571.7501011043 	(obj:0)
STE(2,4)                             13229.9999999931 	(obj:0)
STE(2,5)                             12887.9641869815 	(obj:0)
STE(2,6)                             14546.2140858704 	(obj:0)
STE(3,7)                              8653.5002022155 	(obj:0)
STE(3,8)                             10311.7501011043 	(obj:0)
STE(3,9)                             10311.7501011043 	(obj:0)
STE(3,10)                            11969.9999999931 	(obj:0)
STE(3,11)                            9969.71428809272 	(obj:0)
STE(3,12)                            11627.9641869815 	(obj:0)
STE(3,13)                            11627.9641869815 	(obj:0)
STE(3,14)                            13286.2140858704 	(obj:0)
STE(4,15)                             7393.5002022155 	(obj:0)
STE(4,16)                              8709.714288092 	(obj:0)
STE(4,17)                            9051.75010110436 	(obj:0)
STE(4,18)                            10367.9641869808 	(obj:0)
STE(4,19)                            9051.75010110431 	(obj:0)
STE(4,20)                            10367.9641869808 	(obj:0)
STE(4,21)                            10709.9999999931 	(obj:0)
STE(4,22)                            12026.2140858696 	(obj:0)
STE(4,23)                            8709.71428809272 	(obj:0)
STE(4,24)                            10025.9283739692 	(obj:0)
STE(4,25)                            10367.9641869816 	(obj:0)
STE(4,26)                             11684.178272858 	(obj:0)
STE(4,27)                            10367.9641869815 	(obj:0)
STE(4,28)                             11684.178272858 	(obj:0)
STE(4,29)                            12026.2140858704 	(obj:0)
STE(4,30)                            13342.4281717469 	(obj:0)
STE(5,31)                            6133.50020222237 	(obj:0)
STE(5,32)                            7449.71428809808 	(obj:0)
STE(5,33)                            7449.71428809887 	(obj:0)
STE(5,34)                            8765.92837397458 	(obj:0)
STE(5,35)                            7791.75010111123 	(obj:0)
STE(5,36)                            9107.96418698694 	(obj:0)
STE(5,37)                            9107.96418698769 	(obj:0)
STE(5,38)                            10424.1782728634 	(obj:0)
STE(5,39)                            7791.75010111118 	(obj:0)
STE(5,40)                            9107.96418698689 	(obj:0)
STE(5,41)                            9107.96418698769 	(obj:0)
STE(5,42)                            10424.1782728634 	(obj:0)
STE(5,43)                                        9450 	(obj:0)
STE(5,44)                            10766.2140858757 	(obj:0)
STE(5,45)                            10766.2140858765 	(obj:0)
STE(5,46)                            12082.4281717522 	(obj:0)
STE(5,47)                            7449.71428809959 	(obj:0)
STE(5,48)                             8765.9283739753 	(obj:0)
STE(5,49)                            8765.92837397609 	(obj:0)
STE(5,50)                            10082.1424598518 	(obj:0)
STE(5,51)                            9107.96418698845 	(obj:0)
STE(5,52)                            10424.1782728642 	(obj:0)
STE(5,53)                            10424.1782728649 	(obj:0)
STE(5,54)                            11740.3923587406 	(obj:0)
STE(5,55)                            9107.96418698841 	(obj:0)
STE(5,56)                            10424.1782728641 	(obj:0)
STE(5,57)                            10424.1782728649 	(obj:0)
STE(5,58)                            11740.3923587406 	(obj:0)
STE(5,59)                            10766.2140858772 	(obj:0)
STE(5,60)                            12082.4281717529 	(obj:0)
STE(5,61)                            12082.4281717537 	(obj:0)
STE(5,62)                            13398.6422576294 	(obj:0)
y1(5,39)                         -6.18183548795059e-009 	(obj:0)
y1(5,41)                         -6.18183548795059e-009 	(obj:0)
y1(5,43)                         -6.18165358901024e-009 	(obj:0)
y1(5,45)                         -6.18183548795059e-009 	(obj:0)
y1(5,47)                         -6.18183548795059e-009 	(obj:0)
y1(5,49)                         -6.18183548795059e-009 	(obj:0)
y1(5,51)                         -6.18183548795059e-009 	(obj:0)
y1(5,53)                         -6.18183548795059e-009 	(obj:0)
y1(5,55)                         -6.18183548795059e-009 	(obj:0)
y1(5,57)                         -6.18183548795059e-009 	(obj:0)
y1(5,59)                         -6.18183548795059e-009 	(obj:0)
y1(5,61)                         -6.18183548795059e-009 	(obj:0)
WB(1)                                543.501764818142 	(obj:0)
AVE(1)                                   3216.9117036 	(obj:0)
WB(2)                                    3366.1541945 	(obj:0)
AVE(2)                                   3366.1541945 	(obj:0)
AVE(3)                                   3515.3966854 	(obj:0)
WB(4)                                3515.39406545826 	(obj:0)
AVE(4)                               3515.39406545826 	(obj:0)
WB(5)                                3167.15385943327 	(obj:0)
AVE(5)                               3167.15385943327 	(obj:0)
WG(1)                                2673.40993878186 	(obj:10)
WG(3)                                    3515.3966854 	(obj:10)
BG(2)                                4196.29249897959 	(obj:10)
BG(3)                                680.895813579591 	(obj:10)
BG(4)                                2673.40993877551 	(obj:10)
BG(5)                                2673.40993876924 	(obj:10)
y1(1,1)                          6.18165358901024e-009 	(obj:0)
y1(2,3)                              1492.42490899994 	(obj:0)
y1(2,5)                              1492.42490899994 	(obj:0)
y1(3,7)                              1492.42490899994 	(obj:0)
y1(3,9)                              1492.42490899994 	(obj:0)
y1(3,11)                             1492.42490899994 	(obj:0)
y1(3,13)                             1492.42490899994 	(obj:0)
y1(5,31)                         -6.18183548795059e-009 	(obj:0)
y1(5,33)                         -6.18183548795059e-009 	(obj:0)
y1(5,35)                         -6.18183548795059e-009 	(obj:0)
y1(5,37)                         -6.18183548795059e-009 	(obj:0)
y2(1,2)                              1385.48851144248 	(obj:0)
y2(4,16)                             1385.48851144895 	(obj:0)
y2(4,18)                             1385.48851144895 	(obj:0)
y2(4,20)                             1385.48851144895 	(obj:0)
y2(4,22)                             1385.48851144895 	(obj:0)
y2(4,24)                             1385.48851144895 	(obj:0)
y2(4,26)                             1385.48851144895 	(obj:0)
y2(4,28)                             1385.48851144895 	(obj:0)
y2(4,30)                             1385.48851144895 	(obj:0)
y2(5,32)                             1385.48851145535 	(obj:0)
y2(5,34)                             1385.48851145535 	(obj:0)
y2(5,36)                             1385.48851145535 	(obj:0)
y2(5,38)                             1385.48851145535 	(obj:0)
